coords = array2d(1..21, 1..2, [16, 805, 298, 669, 565, 526, 502, 582, 640, 562,
    885, 883, 878, 173, 449, 722, 258, 71, 678, 730, 27, 534, 378,
    382, 812, 800, 374, 613, 788, 871, 730, 726, 711, 673, 336, 2,
    893, 520, 165, 396, 384, 859]);

n = 21;

